(set-option :print-success false)
(set-logic QF_UF)
(declare-sort x154 0)
(declare-sort x150 0)
(declare-fun x123 () x150)
(declare-fun x119 (x150 x150) x150)
(declare-fun x60 () x150)
(declare-fun x129 (x150 x150) x150)
(declare-fun x36 () x150)
(declare-fun x90 () x150)
(declare-fun x113 () x150)
(assert (let ((x115 (x119 x36 x36)) (x112 (x119 x60 x60)) (x159 (x119 x113 x113)) (x142 (x119 x90 x90)) (x77 (x119 x123 x123))) (let ((x104 (= x113 x159)) (x139 (= x36 x115)) (x12 (= x142 x90)) (x133 (= x77 x123)) (x87 (= x112 x60))) (and (or (or (or (or (= x123 x159) (or (= x123 x112) (= x123 x115))) (= x123 x142)) x133) (or x133 (or (= (x119 x123 x90) x90) (or (or (= (x119 x123 x60) x60) (= x36 (x119 x123 x36))) (= (x119 x123 x113) x113))))) (and (and (and (or (or (or (or (= x60 x159) (or x87 (= x60 x115))) (= x142 x60)) (= x77 x60)) (or (= x123 (x119 x60 x123)) (or (or (or (= x36 (x119 x60 x36)) x87) (= (x119 x60 x113) x113)) (= (x119 x60 x90) x90)))) (or (or (= x77 x36) (or (or (or (= x36 x112) x139) (= x36 x159)) (= x36 x142))) (or (or (= x90 (x119 x36 x90)) (or (= (x119 x36 x113) x113) (or x139 (= x60 (x119 x36 x60))))) (= (x119 x36 x123) x123)))) (or (or (or (or (or (= x112 x113) (= x113 x115)) x104) (= x113 x142)) (= x77 x113)) (or (= x123 (x119 x113 x123)) (or (or x104 (or (= x36 (x119 x113 x36)) (= x60 (x119 x113 x60)))) (= (x119 x113 x90) x90))))) (or (or (= x123 (x119 x90 x123)) (or x12 (or (or (= (x119 x90 x36) x36) (= x60 (x119 x90 x60))) (= x113 (x119 x90 x113))))) (or (or (or (or (= x112 x90) (= x90 x115)) (= x90 x159)) x12) (= x90 x77))))))))
(assert (let ((x108 (x119 x36 x123)) (x132 (x119 x123 x36)) (x51 (x119 x123 x90)) (x9 (x119 x123 x123)) (x142 (x119 x60 x90)) (x77 (x119 x60 x123)) (x122 (x119 x113 x113)) (x12 (x119 x113 x60)) (x115 (x119 x60 x36)) (x16 (x119 x36 x113)) (x112 (x119 x60 x60)) (x141 (x119 x36 x90)) (x159 (x119 x60 x113)) (x133 (x119 x90 x60)) (x19 (x119 x90 x90)) (x39 (x119 x90 x123)) (x65 (x119 x90 x113)) (x73 (x119 x123 x113)) (x47 (x119 x113 x123)) (x104 (x119 x36 x60)) (x68 (x119 x123 x60)) (x130 (x119 x90 x36)) (x30 (x119 x36 x36)) (x63 (x119 x113 x90)) (x21 (x119 x113 x36))) (let ((x18 (= x90 x30)) (x70 (= x123 x63)) (x155 (= x90 x122)) (x31 (= x123 x115)) (x62 (= x115 x60)) (x152 (= x68 x123)) (x46 (= x108 x113)) (x149 (= x60 x16)) (x24 (= x12 x113)) (x69 (= x130 x60)) (x2 (= x108 x90)) (x22 (= x36 x9)) (x136 (= x60 x39)) (x53 (= x47 x113)) (x80 (= x133 x36)) (x66 (= x90 x16)) (x40 (= x90 x63)) (x58 (= x90 x73)) (x97 (= x123 x19)) (x6 (= x113 x39)) (x109 (= x36 x19)) (x84 (= x36 x122)) (x131 (= x123 x141)) (x86 (= x90 x47)) (x64 (= x16 x36)) (x42 (= x63 x36)) (x93 (= x36 x51)) (x107 (= x36 x108)) (x106 (= x141 x113)) (x85 (= x30 x36)) (x81 (= x142 x60)) (x143 (= x47 x60)) (x102 (= x113 x30)) (x79 (= x141 x90)) (x76 (= x130 x90)) (x67 (= x77 x90)) (x146 (= x21 x123)) (x8 (= x60 x65)) (x72 (= x159 x60)) (x125 (= x36 x73)) (x78 (= x63 x60)) (x128 (= x39 x36)) (x87 (= x60 x112)) (x3 (= x132 x36)) (x89 (= x39 x123)) (x124 (= x77 x36)) (x118 (= x60 x9)) (x55 (= x60 x12)) (x25 (= x90 x21)) (x127 (= x132 x123)) (x88 (= x16 x123)) (x95 (= x36 x47)) (x57 (= x113 x159)) (x121 (= x122 x123)) (x10 (= x113 x65)) (x153 (= x19 x113)) (x144 (= x90 x19)) (x135 (= x104 x60)) (x75 (= x90 x142)) (x101 (= x63 x113)) (x126 (= x30 x60)) (x15 (= x73 x60)) (x37 (= x16 x113)) (x74 (= x68 x36)) (x110 (= x21 x60)) (x151 (= x115 x113)) (x44 (= x60 x19)) (x48 (= x130 x113)) (x148 (= x112 x113)) (x138 (= x108 x123)) (x91 (= x159 x123)) (x105 (= x90 x9)) (x103 (= x90 x112)) (x61 (= x142 x113)) (x114 (= x60 x68)) (x134 (= x133 x90)) (x52 (= x113 x132)) (x50 (= x51 x60)) (x120 (= x36 x115)) (x83 (= x60 x141)) (x27 (= x130 x36)) (x98 (= x90 x65)) (x111 (= x113 x104)) (x100 (= x113 x133)) (x49 (= x132 x90)) (x59 (= x65 x123)) (x32 (= x123 x112)) (x45 (= x60 x132)) (x71 (= x123 x133)) (x158 (= x51 x113)) (x26 (= x123 x47)) (x33 (= x90 x68)) (x14 (= x36 x21)) (x41 (= x113 x77)) (x54 (= x12 x36)) (x5 (= x122 x60)) (x157 (= x77 x123)) (x82 (= x159 x36)) (x28 (= x12 x90)) (x139 (= x36 x112)) (x156 (= x108 x60)) (x43 (= x159 x90)) (x99 (= x123 x104)) (x35 (= x60 x77)) (x34 (= x122 x113)) (x145 (= x123 x130)) (x117 (= x36 x65)) (x11 (= x142 x36)) (x140 (= x51 x90)) (x56 (= x123 x9)) (x94 (= x123 x51)) (x17 (= x9 x113)) (x92 (= x90 x104)) (x23 (= x113 x68)) (x1 (= x113 x73)) (x147 (= x90 x39)) (x20 (= x36 x104)) (x96 (= x21 x113)) (x29 (= x30 x123)) (x7 (= x123 x73)) (x4 (= x12 x123)) (x13 (= x60 x133)) (x116 (= x142 x123)) (x137 (= x141 x36)) (x38 (= x115 x90))) (and (and (and (and (and (and (and (or (or (or x28 (or x92 x103)) x134) x33) (or (or (or x43 (or x38 x103)) x75) x67)) (and (and (or (or x61 (or (or x151 x148) x57)) x41) (or (or x100 (or (or x148 x111) x24)) x23)) (and (and (or x124 (or x11 (or (or x139 x120) x82))) (or (or (or (or x139 x20) x54) x80) x74)) (and (or (or x13 (or x55 (or x135 x87))) x114) (or (or x81 (or (or x62 x87) x72)) x35))))) (and (or (or (or x91 (or x32 x31)) x116) x157) (or (or x71 (or (or x99 x32) x4)) x152))) (and (and (or (or x131 (or x88 (or x29 x99))) x138) (or (or (or (or x31 x29) x146) x145) x127)) (and (and (and (or (or x48 (or (or x102 x151) x96)) x52) (or (or (or (or x102 x111) x37) x106) x46)) (and (and (or (or (or x110 (or x62 x126)) x69) x45) (or (or (or x149 (or x135 x126)) x83) x156)) (and (or x107 (or x137 (or x64 (or x85 x20)))) (or x3 (or (or x14 (or x85 x120)) x27))))) (and (or x2 (or x79 (or (or x92 x18) x66))) (or x49 (or (or (or x18 x38) x25) x76)))))) (and (and (or (or (or x121 (or x88 x91)) x59) x7) (or (or x70 (or (or x146 x4) x121)) x26)) (and (and (and (and (or (or x117 (or (or x82 x64) x84)) x125) (or (or (or x84 (or x54 x14)) x42) x95)) (and (or x15 (or (or (or x72 x149) x5) x8)) (or (or (or (or x110 x55) x5) x78) x143))) (and (or x53 (or (or (or x96 x24) x34) x101)) (or (or x10 (or (or x57 x37) x34)) x1))) (and (or (or (or (or x43 x66) x155) x98) x58) (or (or (or x155 (or x28 x25)) x40) x86))))) (and (and (or (or (or x59 (or x145 x71)) x97) x89) (or x94 (or x97 (or (or x116 x131) x70)))) (and (and (and (or x6 (or x153 (or x10 (or x48 x100)))) (or (or (or x101 (or x61 x106)) x153) x158)) (and (and (or x128 (or x109 (or (or x80 x27) x117))) (or (or x109 (or x42 (or x137 x11))) x93)) (and (or x136 (or x44 (or x8 (or x13 x69)))) (or x50 (or (or x78 (or x81 x83)) x44))))) (and (or (or (or x98 (or x76 x134)) x144) x147) (or x140 (or x144 (or x40 (or x75 x79)))))))) (and (and (or x56 (or (or (or x138 x157) x26) x89)) (or x56 (or x94 (or (or x152 x127) x7)))) (and (and (or (or (or (or x33 x49) x58) x140) x105) (or x105 (or x147 (or (or x67 x2) x86)))) (and (and (or x17 (or (or (or x46 x41) x53) x6)) (or (or (or (or x52 x23) x1) x158) x17)) (and (and (or x118 (or (or (or x35 x156) x143) x136)) (or x118 (or (or x15 (or x45 x114)) x50))) (and (or (or (or (or x107 x124) x95) x128) x22) (or (or x93 (or x125 (or x74 x3))) x22))))))))))
(assert (let ((x159 (not (= x90 (x119 (x119 x90 x90) x90)))) (x142 (not (= (x119 (x119 x123 x123) x123) x123))) (x87 (not (= (x119 (x119 x60 x60) x60) x60))) (x112 (not (= (x119 (x119 x36 x36) x36) x36))) (x115 (not (= x113 (x119 (x119 x113 x113) x113))))) (and (and (and x159 (and (and x87 x112) x115)) x142) (or (and x142 (and (and (and (not (= (x119 (x119 x123 x36) x123) x36)) (not (= (x119 (x119 x123 x60) x123) x60))) (not (= (x119 (x119 x123 x113) x123) x113))) (not (= x90 (x119 (x119 x123 x90) x123))))) (or (and (not (= x123 (x119 (x119 x90 x123) x90))) (and (and (and (not (= x36 (x119 (x119 x90 x36) x90))) (not (= (x119 (x119 x90 x60) x90) x60))) (not (= (x119 (x119 x90 x113) x90) x113))) x159)) (or (and (not (= x123 (x119 (x119 x113 x123) x113))) (and (and (and (not (= x60 (x119 (x119 x113 x60) x113))) (not (= (x119 (x119 x113 x36) x113) x36))) x115) (not (= (x119 (x119 x113 x90) x113) x90)))) (or (and (and (not (= (x119 (x119 x60 x90) x60) x90)) (and (not (= (x119 (x119 x60 x113) x60) x113)) (and x87 (not (= x36 (x119 (x119 x60 x36) x60)))))) (not (= x123 (x119 (x119 x60 x123) x60)))) (and (not (= (x119 (x119 x36 x123) x36) x123)) (and (not (= x90 (x119 (x119 x36 x90) x36))) (and (not (= x113 (x119 (x119 x36 x113) x36))) (and x112 (not (= (x119 (x119 x36 x60) x36) x60)))))))))))))
(assert (let ((x159 (x119 x36 x60)) (x112 (x119 x60 x60)) (x151 (x119 x113 x113)) (x99 (x119 x90 x36)) (x133 (x119 x123 x60)) (x5 (x119 x123 x36)) (x63 (x119 x123 x123)) (x92 (x119 x113 x123)) (x103 (x119 x60 x36)) (x126 (x119 x60 x123)) (x85 (x119 x36 x123)) (x110 (x119 x90 x123)) (x102 (x119 x113 x90)) (x62 (x119 x60 x90)) (x108 (x119 x36 x113)) (x77 (x119 x113 x60)) (x135 (x119 x60 x113)) (x14 (x119 x123 x113)) (x29 (x119 x90 x113)) (x104 (x119 x90 x60)) (x16 (x119 x36 x36)) (x122 (x119 x123 x90)) (x55 (x119 x90 x90)) (x132 (x119 x113 x36)) (x120 (x119 x36 x90))) (let ((x30 (= x60 x16)) (x91 (= x29 x36)) (x9 (= x36 x85)) (x100 (= x90 x120)) (x43 (= x151 x36)) (x42 (= x120 x36)) (x37 (= x113 x108)) (x78 (= x62 x60)) (x156 (= x123 x135)) (x20 (= x36 x159)) (x12 (= x133 x60)) (x127 (= x60 x63)) (x50 (= x123 x103)) (x19 (= x62 x90)) (x149 (= x5 x60)) (x118 (= x126 x90)) (x138 (= x113 x63)) (x95 (= x120 x123)) (x139 (= x60 x104)) (x11 (= x120 x60)) (x97 (= x113 x122)) (x67 (= x29 x123)) (x68 (= x36 x112)) (x96 (= x16 x113)) (x141 (= x16 x36)) (x130 (= x132 x60)) (x101 (= x90 x151)) (x54 (= x5 x36)) (x31 (= x99 x36)) (x75 (= x90 x99)) (x125 (= x85 x60)) (x109 (= x90 x108)) (x21 (= x77 x36)) (x147 (= x90 x110)) (x98 (= x60 x55)) (x74 (= x123 x126)) (x107 (= x113 x85)) (x117 (= x113 x62)) (x1 (= x132 x123)) (x140 (= x36 x110)) (x86 (= x123 x55)) (x146 (= x99 x113)) (x79 (= x55 x36)) (x94 (= x36 x63)) (x82 (= x135 x60)) (x72 (= x133 x36)) (x73 (= x113 x159)) (x58 (= x99 x123)) (x88 (= x29 x113)) (x51 (= x120 x113)) (x111 (= x36 x132)) (x69 (= x113 x5)) (x57 (= x108 x36)) (x47 (= x113 x112)) (x38 (= x36 x104)) (x142 (= x60 x77)) (x155 (= x113 x104)) (x148 (= x60 x103)) (x144 (= x55 x113)) (x18 (= x99 x60)) (x44 (= x103 x90)) (x87 (= x60 x112)) (x83 (= x112 x90)) (x66 (= x151 x113)) (x8 (= x36 x14)) (x26 (= x122 x123)) (x71 (= x90 x55)) (x10 (= x102 x60)) (x65 (= x135 x113)) (x33 (= x104 x123)) (x7 (= x123 x5)) (x35 (= x126 x36)) (x3 (= x159 x123)) (x23 (= x77 x123)) (x134 (= x90 x102)) (x143 (= x113 x126)) (x106 (= x36 x102)) (x131 (= x122 x36)) (x76 (= x90 x104)) (x45 (= x123 x112)) (x136 (= x62 x123)) (x13 (= x60 x14)) (x32 (= x36 x103)) (x48 (= x90 x77)) (x64 (= x103 x113)) (x41 (= x151 x123)) (x158 (= x92 x36)) (x34 (= x77 x113)) (x46 (= x92 x113)) (x157 (= x14 x123)) (x40 (= x29 x90)) (x152 (= x133 x123)) (x116 (= x5 x90)) (x52 (= x60 x92)) (x61 (= x132 x90)) (x81 (= x14 x113)) (x28 (= x151 x60)) (x84 (= x36 x135)) (x89 (= x63 x90)) (x153 (= x113 x102)) (x93 (= x16 x123)) (x49 (= x60 x110)) (x15 (= x126 x60)) (x17 (= x92 x123)) (x115 (= x159 x60)) (x80 (= x36 x62)) (x114 (= x122 x90)) (x4 (= x60 x29)) (x105 (= x123 x110)) (x2 (= x110 x113)) (x6 (= x92 x90)) (x56 (= x63 x123)) (x24 (= x60 x108)) (x27 (= x90 x135)) (x128 (= x85 x90)) (x121 (= x133 x113)) (x53 (= x123 x102)) (x124 (= x108 x123)) (x39 (= x159 x90)) (x25 (= x113 x132)) (x70 (= x14 x90)) (x22 (= x123 x85)) (x137 (= x16 x90)) (x145 (= x133 x90)) (x59 (= x60 x122))) (and (or (or (or (or (or (and (not x6) x53) (or (or (and (not x158) x1) (and x23 (not x52))) (and (not x46) x41))) (and x17 (not x17))) (or (or (and (not x74) x74) (or (or (or (and x45 (not x15)) (and (not x35) x50)) (and (not x143) x156)) (and x136 (not x118)))) (or (or (and (not x128) x95) (or (and x124 (not x107)) (or (and x93 (not x9)) (and x3 (not x125))))) (and (not x22) x22)))) (or (or (and x86 (not x147)) (or (and x67 (not x2)) (or (and x33 (not x49)) (and (not x140) x58)))) (and (not x105) x105))) (or (or (or (or (and (not x94) x7) (and (not x127) x152)) (and (not x138) x157)) (and (not x89) x26)) (and x56 (not x56)))) (and (and (and (or (or (or (or (and x98 (not x76)) (or (or (and x139 (not x139)) (and x18 (not x38))) (and x4 (not x155)))) (and (not x33) x49)) (or (or (and (not x23) x52) (or (or (and (not x34) x28) (or (and x142 (not x142)) (and (not x21) x130))) (and x10 (not x48)))) (or (or (and (not x3) x125) (or (or (or (and (not x20) x30) (and x115 (not x115))) (and (not x73) x24)) (and (not x39) x11))) (or (and (not x45) x15) (or (and (not x83) x78) (or (and x82 (not x47)) (or (and x87 (not x87)) (and (not x68) x148)))))))) (or (and (not x152) x127) (or (and x59 (not x145)) (or (or (and x149 (not x72)) (and (not x12) x12)) (and x13 (not x121)))))) (or (or (or (or (or (and x72 (not x149)) (and x54 (not x54))) (and (not x69) x8)) (and (not x116) x131)) (and (not x7) x94)) (or (or (or (or (and x35 (not x50)) (or (and x80 (not x44)) (or (or (and (not x32) x32) (and (not x148) x68)) (and (not x64) x84)))) (or (or (and (not x137) x42) (or (and x57 (not x96)) (or (and (not x30) x20) (and x141 (not x141))))) (and x9 (not x93)))) (or (and (not x1) x158) (or (and (not x61) x106) (or (and (not x25) x43) (or (and x21 (not x130)) (and (not x111) x111)))))) (or (and x140 (not x58)) (or (and (not x75) x79) (or (or (and (not x18) x38) (and (not x31) x31)) (and (not x146) x91))))))) (or (or (or (or (or (and x69 (not x8)) (and x121 (not x13))) (and x81 (not x81))) (and x97 (not x70))) (and x138 (not x157))) (or (or (or (or (and x143 (not x156)) (or (and (not x27) x117) (or (and x65 (not x65)) (or (and x64 (not x84)) (and (not x82) x47))))) (or (and x107 (not x124)) (or (and (not x109) x51) (or (and (not x37) x37) (or (and x73 (not x24)) (and (not x57) x96)))))) (or (or (and x153 (not x101)) (or (and x66 (not x66)) (or (and (not x43) x25) (and x34 (not x28))))) (and (not x41) x46))) (or (and x2 (not x67)) (or (and (not x40) x144) (or (and x88 (not x88)) (or (and x155 (not x4)) (and (not x91) x146)))))))) (or (or (or (or (or (or (and x76 (not x98)) (and x75 (not x79))) (and (not x144) x40)) (and (not x71) x71)) (and x147 (not x86))) (or (or (and x6 (not x53)) (or (and x134 (not x134)) (or (or (and x61 (not x106)) (and x48 (not x10))) (and (not x153) x101)))) (or (or (and x128 (not x95)) (or (or (and (not x51) x109) (or (and x137 (not x42)) (and (not x11) x39))) (and (not x100) x100))) (or (and x118 (not x136)) (or (and (not x19) x19) (or (or (and (not x78) x83) (and x44 (not x80))) (and x27 (not x117)))))))) (or (or (or (and x70 (not x97)) (or (and x145 (not x59)) (and x116 (not x131)))) (and (not x114) x114)) (and (not x26) x89))))))))
(assert (let ((x103 (x119 x113 x113)) (x20 (x119 x90 x113)) (x159 (x119 x60 x90)) (x12 (x119 x36 x90)) (x32 (x119 x113 x90)) (x85 (x119 x123 x90)) (x135 (x119 x113 x123)) (x30 (x119 x90 x90)) (x139 (x119 x36 x36)) (x104 (x119 x36 x113)) (x126 (x119 x90 x36)) (x68 (x119 x113 x60)) (x115 (x119 x60 x113)) (x77 (x119 x36 x60)) (x87 (x119 x60 x60)) (x62 (x119 x90 x60)) (x120 (x119 x123 x113)) (x142 (x119 x60 x123)) (x16 (x119 x90 x123)) (x21 (x119 x123 x123)) (x148 (x119 x113 x36)) (x108 (x119 x123 x36)) (x112 (x119 x60 x36)) (x133 (x119 x36 x123)) (x141 (x119 x123 x60))) (or (or (and (and (not (= (x119 x90 x30) x30)) (and (and (not (= (x119 x36 x126) x126)) (not (= x62 (x119 x60 x62)))) (not (= (x119 x113 x20) x20)))) (not (= x16 (x119 x123 x16)))) (or (or (and (and (and (not (= x115 (x119 x113 x115))) (and (not (= (x119 x60 x87) x87)) (not (= (x119 x36 x112) x112)))) (not (= x159 (x119 x90 x159)))) (not (= x142 (x119 x123 x142)))) (and (not (= x133 (x119 x123 x133))) (and (not (= (x119 x90 x12) x12)) (and (not (= x104 (x119 x113 x104))) (and (not (= (x119 x60 x77) x77)) (not (= x139 (x119 x36 x139)))))))) (and (and (not (= x32 (x119 x90 x32))) (and (and (not (= (x119 x36 x148) x148)) (not (= (x119 x60 x68) x68))) (not (= (x119 x113 x103) x103)))) (not (= x135 (x119 x123 x135)))))) (and (and (not (= x85 (x119 x90 x85))) (and (and (not (= (x119 x60 x141) x141)) (not (= x108 (x119 x36 x108)))) (not (= x120 (x119 x113 x120))))) (not (= (x119 x123 x21) x21))))))
(assert (and (or (= x123 (x119 x123 (x119 x123 x123))) (or (or (= (x119 x123 (x119 x123 x113)) x113) (or (= x36 (x119 x123 (x119 x123 x36))) (= x60 (x119 x123 (x119 x123 x60))))) (= (x119 x123 (x119 x123 x90)) x90))) (and (and (or (= x123 (x119 x113 (x119 x113 x123))) (or (or (= x113 (x119 x113 (x119 x113 x113))) (or (= x60 (x119 x113 (x119 x113 x60))) (= x36 (x119 x113 (x119 x113 x36))))) (= (x119 x113 (x119 x113 x90)) x90))) (and (or (= x123 (x119 x36 (x119 x36 x123))) (or (or (= (x119 x36 (x119 x36 x113)) x113) (or (= x36 (x119 x36 (x119 x36 x36))) (= (x119 x36 (x119 x36 x60)) x60))) (= (x119 x36 (x119 x36 x90)) x90))) (or (= (x119 x60 (x119 x60 x123)) x123) (or (or (or (= x60 (x119 x60 (x119 x60 x60))) (= x36 (x119 x60 (x119 x60 x36)))) (= x113 (x119 x60 (x119 x60 x113)))) (= (x119 x60 (x119 x60 x90)) x90))))) (or (= x123 (x119 x90 (x119 x90 x123))) (or (or (= (x119 x90 (x119 x90 x113)) x113) (or (= x60 (x119 x90 (x119 x90 x60))) (= x36 (x119 x90 (x119 x90 x36))))) (= x90 (x119 x90 (x119 x90 x90))))))))
(assert (let ((x112 (x119 x36 x60)) (x139 (x119 x36 x36)) (x133 (x119 x123 x36)) (x103 (x119 x113 x113)) (x21 (x119 x123 x123)) (x16 (x119 x123 x90)) (x30 (x119 x90 x90)) (x115 (x119 x113 x60)) (x141 (x119 x60 x123)) (x120 (x119 x113 x123)) (x85 (x119 x90 x123)) (x68 (x119 x60 x113)) (x32 (x119 x90 x113)) (x20 (x119 x113 x90)) (x159 (x119 x90 x60)) (x77 (x119 x60 x36)) (x87 (x119 x60 x60)) (x12 (x119 x90 x36)) (x108 (x119 x36 x123)) (x142 (x119 x123 x60)) (x126 (x119 x36 x90)) (x148 (x119 x36 x113)) (x104 (x119 x113 x36)) (x62 (x119 x60 x90)) (x135 (x119 x123 x113))) (and (and (and (and (and (and (and (and (not (= x126 x30)) (and (not (= x20 x126)) (and (and (not (= x30 x62)) (and (not (= x62 x20)) (not (= x62 x126)))) (not (= x62 x16))))) (not (= x126 x16))) (not (= x20 x30))) (not (= x20 x16))) (not (= x16 x30))) (and (and (and (and (and (and (not (= x148 x32)) (and (not (= x148 x103)) (and (not (= x68 x135)) (and (and (not (= x68 x103)) (not (= x68 x148))) (not (= x32 x68)))))) (not (= x148 x135))) (not (= x32 x103))) (not (= x103 x135))) (not (= x32 x135))) (and (and (and (and (not (= x104 x12)) (and (not (= x139 x133)) (and (and (not (= x139 x104)) (and (not (= x77 x133)) (and (not (= x12 x77)) (and (not (= x77 x139)) (not (= x104 x77)))))) (not (= x139 x12))))) (not (= x133 x104))) (not (= x12 x133))) (and (not (= x159 x142)) (and (and (and (not (= x142 x112)) (and (and (and (and (and (not (= x87 x112)) (not (= x87 x115))) (not (= x87 x159))) (not (= x142 x87))) (not (= x112 x115))) (not (= x159 x112)))) (not (= x159 x115))) (not (= x142 x115))))))) (and (and (and (and (not (= x21 x108)) (and (and (not (= x108 x120)) (and (and (not (= x85 x141)) (and (not (= x108 x141)) (not (= x141 x120)))) (not (= x141 x21)))) (not (= x85 x108)))) (not (= x85 x120))) (not (= x21 x120))) (not (= x85 x21)))) (and (and (and (not (= x135 x21)) (and (and (and (not (= x16 x133)) (and (and (and (and (not (= x135 x142)) (not (= x142 x133))) (not (= x142 x16))) (not (= x142 x21))) (not (= x133 x135)))) (not (= x21 x133))) (not (= x16 x135)))) (not (= x16 x21))) (and (and (and (and (not (= x30 x32)) (and (not (= x12 x85)) (and (not (= x12 x30)) (and (and (not (= x159 x85)) (and (not (= x30 x159)) (and (not (= x12 x159)) (not (= x159 x32))))) (not (= x32 x12)))))) (not (= x32 x85))) (not (= x30 x85))) (and (and (and (not (= x141 x62)) (and (and (not (= x62 x68)) (and (not (= x141 x77)) (and (and (and (and (and (not (= x68 x87)) (not (= x87 x77))) (not (= x62 x87))) (not (= x141 x87))) (not (= x68 x77))) (not (= x77 x62))))) (not (= x68 x141)))) (and (and (and (and (and (and (not (= x148 x139)) (and (not (= x108 x112)) (and (and (not (= x148 x112)) (not (= x112 x139))) (not (= x112 x126))))) (not (= x126 x139))) (not (= x108 x139))) (not (= x126 x148))) (not (= x108 x148))) (not (= x108 x126)))) (and (not (= x20 x120)) (and (not (= x120 x103)) (and (and (and (not (= x104 x20)) (and (and (and (and (not (= x103 x115)) (not (= x115 x104))) (not (= x20 x115))) (not (= x120 x115))) (not (= x103 x104)))) (not (= x104 x120))) (not (= x103 x20)))))))))))
(assert (or (or (or (and (not (= (x119 (x119 x123 x113) x113) x123)) (and (and (and (not (= (x119 (x119 x60 x113) x113) x60)) (not (= (x119 (x119 x36 x113) x113) x36))) (not (= (x119 (x119 x113 x113) x113) x113))) (not (= x90 (x119 (x119 x90 x113) x113))))) (or (and (not (= x123 (x119 (x119 x123 x60) x60))) (and (and (and (not (= (x119 (x119 x60 x60) x60) x60)) (not (= (x119 (x119 x36 x60) x60) x36))) (not (= x113 (x119 (x119 x113 x60) x60)))) (not (= x90 (x119 (x119 x90 x60) x60))))) (and (and (and (and (not (= x60 (x119 (x119 x60 x36) x36))) (not (= (x119 (x119 x36 x36) x36) x36))) (not (= (x119 (x119 x113 x36) x36) x113))) (not (= (x119 (x119 x90 x36) x36) x90))) (not (= x123 (x119 (x119 x123 x36) x36)))))) (and (not (= x123 (x119 (x119 x123 x90) x90))) (and (and (and (not (= x36 (x119 (x119 x36 x90) x90))) (not (= (x119 (x119 x60 x90) x90) x60))) (not (= (x119 (x119 x113 x90) x90) x113))) (not (= x90 (x119 (x119 x90 x90) x90)))))) (and (and (not (= x90 (x119 (x119 x90 x123) x123))) (and (not (= x113 (x119 (x119 x113 x123) x123))) (and (not (= x60 (x119 (x119 x60 x123) x123))) (not (= (x119 (x119 x36 x123) x123) x36))))) (not (= (x119 (x119 x123 x123) x123) x123)))))
(assert (not (and (and (= (x119 x123 x90) x36) (and (and (= x123 (x119 x123 x36)) (and (= (x119 x123 x60) x90) (and (and (= x123 (x119 x90 x90)) (and (= x90 (x119 x90 x113)) (and (and (= (x119 x90 x60) x60) (and (= (x119 x113 x123) x123) (and (= (x119 x113 x90) x60) (and (= (x119 x113 x113) x36) (and (= (x119 x113 x36) x90) (and (and (and (= (x119 x36 x90) x113) (and (= (x119 x36 x113) x123) (and (= (x119 x36 x36) x60) (and (= (x119 x36 x60) x36) (and (= x36 (x119 x60 x123)) (and (and (= x60 (x119 x60 x113)) (and (= (x119 x60 x60) x123) (= (x119 x60 x36) x113))) (= x90 (x119 x60 x90)))))))) (= (x119 x36 x123) x90)) (= (x119 x113 x60) x113))))))) (= x36 (x119 x90 x36))))) (= x113 (x119 x90 x123))))) (= x113 (x119 x123 x113)))) (= (x119 x123 x123) x60))))
(assert (and (= x123 (x119 x60 x60)) (and (and (= x60 (x119 x36 x36)) (= (x119 x113 x113) x36)) (= x90 (x119 x123 x60)))))
(assert (let ((x62 (not (= x90 (x119 x90 x90)))) (x12 (not (= (x119 x113 x113) x113))) (x103 (x119 x36 x90)) (x87 (not (= x60 (x119 x60 x60)))) (x108 (x119 x113 x123)) (x20 (x119 x60 x123)) (x16 (x119 x36 x123)) (x159 (not (= (x119 x36 x36) x36))) (x77 (x119 x60 x113)) (x30 (x119 x123 x36)) (x142 (x119 x113 x60)) (x32 (x119 x90 x113)) (x85 (x119 x90 x123)) (x120 (x119 x123 x90)) (x139 (x119 x113 x36)) (x112 (x119 x36 x60)) (x68 (x119 x60 x90)) (x21 (not (= (x119 x123 x123) x123))) (x135 (x119 x113 x90)) (x115 (x119 x60 x36)) (x126 (x119 x123 x60)) (x133 (x119 x90 x60)) (x141 (x119 x123 x113)) (x104 (x119 x36 x113)) (x148 (x119 x90 x36))) (and (and (and (and (or (not (= x123 x108)) (not (= x123 x141))) (and (or (not (= x123 x20)) (not (= x126 x123))) (or (not (= x16 x123)) (not (= x123 x30))))) (or (not (= x123 x120)) (not (= x123 x85)))) (or x21 x21)) (and (and (and (and (and (or x12 x12) (and (or (not (= x77 x113)) (not (= x142 x113))) (or (not (= x139 x113)) (not (= x104 x113))))) (or (not (= x113 x135)) (not (= x113 x32)))) (or (not (= x113 x108)) (not (= x141 x113)))) (and (and (or (not (= x36 x30)) (not (= x36 x16))) (and (and (and (or x159 x159) (or (not (= x36 x112)) (not (= x36 x115)))) (or (not (= x104 x36)) (not (= x36 x139)))) (or (not (= x103 x36)) (not (= x36 x148))))) (and (or (not (= x60 x126)) (not (= x60 x20))) (and (or (not (= x60 x133)) (not (= x60 x68))) (and (or (not (= x77 x60)) (not (= x60 x142))) (and (or (not (= x115 x60)) (not (= x112 x60))) (or x87 x87))))))) (and (and (or x62 x62) (and (or (not (= x32 x90)) (not (= x90 x135))) (and (or (not (= x90 x133)) (not (= x90 x68))) (or (not (= x148 x90)) (not (= x103 x90)))))) (or (not (= x90 x120)) (not (= x85 x90))))))))
(assert (and (and (and (not (= x113 (x119 x113 x113))) (and (not (= (x119 x60 x60) x60)) (not (= x36 (x119 x36 x36))))) (not (= (x119 x90 x90) x90))) (not (= x123 (x119 x123 x123)))))
(assert (and (not (= x123 x90)) (and (not (= x113 x123)) (and (and (not (= x36 x123)) (and (and (and (not (= x123 x60)) (and (and (not (= x60 x36)) (not (= x113 x60))) (not (= x60 x90)))) (not (= x36 x113))) (not (= x36 x90)))) (not (= x90 x113))))))
(assert (or (or (and (not (= (x119 x123 (x119 x90 x123)) x90)) (and (and (and (not (= x90 (x119 x60 (x119 x90 x60)))) (not (= x90 (x119 x36 (x119 x90 x36))))) (not (= (x119 x113 (x119 x90 x113)) x90))) (not (= x90 (x119 x90 (x119 x90 x90)))))) (or (and (and (and (and (not (= x113 (x119 x36 (x119 x113 x36)))) (not (= x113 (x119 x60 (x119 x113 x60))))) (not (= (x119 x113 (x119 x113 x113)) x113))) (not (= (x119 x90 (x119 x113 x90)) x113))) (not (= x113 (x119 x123 (x119 x113 x123))))) (or (and (not (= x36 (x119 x123 (x119 x36 x123)))) (and (and (not (= (x119 x113 (x119 x36 x113)) x36)) (and (not (= x36 (x119 x36 (x119 x36 x36)))) (not (= x36 (x119 x60 (x119 x36 x60)))))) (not (= (x119 x90 (x119 x36 x90)) x36)))) (and (and (and (not (= (x119 x113 (x119 x60 x113)) x60)) (and (not (= (x119 x36 (x119 x60 x36)) x60)) (not (= (x119 x60 (x119 x60 x60)) x60)))) (not (= (x119 x90 (x119 x60 x90)) x60))) (not (= x60 (x119 x123 (x119 x60 x123)))))))) (and (and (not (= (x119 x90 (x119 x123 x90)) x123)) (and (and (not (= (x119 x36 (x119 x123 x36)) x123)) (not (= x123 (x119 x60 (x119 x123 x60))))) (not (= (x119 x113 (x119 x123 x113)) x123)))) (not (= x123 (x119 x123 (x119 x123 x123)))))))
(assert (let ((x110 (x119 x36 x36)) (x14 (x119 x90 x36)) (x96 (x119 x90 x113)) (x111 (x119 x60 x36)) (x130 (x119 x60 x60)) (x88 (x119 x123 x90)) (x92 (x119 x113 x60)) (x54 (x119 x36 x90)) (x24 (x119 x113 x90)) (x31 (x119 x123 x60)) (x57 (x119 x113 x123)) (x122 (x119 x36 x123)) (x37 (x119 x123 x113)) (x65 (x119 x113 x113)) (x80 (x119 x123 x123)) (x91 (x119 x90 x123)) (x102 (x119 x60 x113)) (x149 (x119 x36 x113)) (x4 (x119 x90 x90)) (x5 (x119 x113 x36)) (x38 (x119 x60 x90)) (x151 (x119 x36 x60)) (x63 (x119 x123 x36)) (x99 (x119 x60 x123)) (x18 (x119 x90 x60))) (let ((x142 (not (= x60 x92))) (x103 (not (= x60 x54))) (x152 (not (= x31 x123))) (x84 (not (= x36 x149))) (x29 (not (= x151 x36))) (x40 (not (= x113 x37))) (x112 (not (= x151 x60))) (x120 (not (= x60 x88))) (x32 (not (= x96 x60))) (x143 (not (= x38 x90))) (x72 (not (= x110 x36))) (x59 (not (= x113 x80))) (x95 (not (= x37 x90))) (x13 (not (= x36 x99))) (x141 (not (= x37 x60))) (x155 (not (= x24 x36))) (x34 (not (= x36 x18))) (x108 (not (= x57 x60))) (x51 (not (= x149 x113))) (x132 (not (= x36 x130))) (x98 (not (= x113 x99))) (x101 (not (= x113 x96))) (x45 (not (= x102 x90))) (x97 (not (= x110 x90))) (x26 (not (= x88 x123))) (x148 (not (= x14 x60))) (x146 (not (= x36 x4))) (x137 (not (= x92 x113))) (x100 (not (= x65 x113))) (x74 (not (= x96 x90))) (x1 (not (= x130 x123))) (x104 (not (= x149 x60))) (x87 (not (= x130 x60))) (x126 (not (= x60 x31))) (x61 (not (= x14 x113))) (x79 (not (= x113 x122))) (x144 (not (= x113 x57))) (x66 (not (= x36 x96))) (x117 (not (= x130 x113))) (x46 (not (= x110 x123))) (x19 (not (= x151 x113))) (x116 (not (= x130 x90))) (x68 (not (= x60 x38))) (x10 (not (= x38 x113))) (x124 (not (= x90 x63))) (x58 (not (= x18 x123))) (x12 (not (= x65 x60))) (x107 (not (= x90 x122))) (x69 (not (= x63 x36))) (x27 (not (= x80 x36))) (x39 (not (= x113 x111))) (x23 (not (= x91 x90))) (x127 (not (= x99 x123))) (x50 (not (= x149 x90))) (x21 (not (= x60 x80))) (x145 (not (= x91 x113))) (x6 (not (= x102 x123))) (x134 (not (= x113 x4))) (x25 (not (= x14 x36))) (x109 (not (= x113 x5))) (x121 (not (= x36 x31))) (x43 (not (= x36 x54))) (x15 (not (= x90 x5))) (x158 (not (= x123 x151))) (x76 (not (= x113 x31))) (x64 (not (= x5 x36))) (x30 (not (= x60 x63))) (x140 (not (= x38 x123))) (x62 (not (= x60 x4))) (x11 (not (= x113 x110))) (x94 (not (= x123 x122))) (x35 (not (= x90 x65))) (x33 (not (= x123 x149))) (x17 (not (= x5 x123))) (x67 (not (= x14 x123))) (x56 (not (= x123 x80))) (x41 (not (= x123 x111))) (x52 (not (= x90 x80))) (x77 (not (= x102 x60))) (x22 (not (= x90 x88))) (x156 (not (= x18 x90))) (x3 (not (= x90 x24))) (x7 (not (= x63 x123))) (x71 (not (= x88 x113))) (x53 (not (= x123 x92))) (x93 (not (= x31 x90))) (x83 (not (= x36 x57))) (x118 (not (= x54 x90))) (x138 (not (= x57 x123))) (x73 (not (= x36 x65))) (x70 (not (= x90 x111))) (x8 (not (= x36 x122))) (x20 (not (= x60 x99))) (x42 (not (= x102 x113))) (x75 (not (= x113 x63))) (x82 (not (= x102 x36))) (x28 (not (= x38 x36))) (x125 (not (= x4 x90))) (x157 (not (= x123 x37))) (x135 (not (= x24 x60))) (x78 (not (= x88 x36))) (x153 (not (= x113 x24))) (x47 (not (= x92 x36))) (x48 (not (= x113 x18))) (x86 (not (= x96 x123))) (x9 (not (= x99 x90))) (x133 (not (= x60 x18))) (x85 (not (= x60 x91))) (x136 (not (= x90 x14))) (x49 (not (= x123 x65))) (x81 (not (= x36 x37))) (x2 (not (= x54 x123))) (x16 (not (= x60 x122))) (x55 (not (= x36 x111))) (x106 (not (= x54 x113))) (x115 (not (= x60 x111))) (x128 (not (= x57 x90))) (x44 (not (= x36 x91))) (x139 (not (= x60 x5))) (x159 (not (= x60 x110))) (x105 (not (= x123 x4))) (x89 (not (= x91 x123))) (x114 (not (= x90 x92))) (x147 (not (= x24 x123))) (x131 (not (= x90 x151)))) (or (and (and (and (or x26 x89) (and (or x157 x138) (and (or x152 x127) (or x94 x7)))) (or x56 x56)) (and (and (and (and (or x147 x86) (and (and (or x53 x6) (or x17 x33)) (or x49 x49))) (or x157 x138)) (and (and (or x152 x127) (and (and (and (or x1 x1) (or x41 x158)) (or x53 x6)) (or x58 x140))) (and (or x94 x7) (and (or x2 x67) (and (and (or x158 x41) (or x46 x46)) (or x33 x17)))))) (and (or x26 x89) (and (or x105 x105) (and (and (or x2 x67) (or x140 x58)) (or x86 x147)))))) (or (or (or (and (and (and (or x85 x120) (and (and (or x32 x135) (and (or x148 x103) (or x68 x133))) (or x62 x62))) (and (and (and (or x20 x126) (and (and (and (or x87 x87) (or x112 x115)) (or x142 x77)) (or x133 x68))) (and (and (and (or x139 x104) (and (or x159 x159) (or x115 x112))) (or x103 x148)) (or x30 x16))) (and (and (or x32 x135) (and (and (or x139 x104) (or x142 x77)) (or x12 x12))) (or x108 x141)))) (and (or x21 x21) (and (and (or x108 x141) (and (or x126 x20) (or x30 x16))) (or x85 x120)))) (and (and (and (and (and (and (or x34 x28) (and (and (or x132 x132) (or x29 x55)) (or x82 x47))) (or x13 x121)) (and (and (and (and (or x72 x72) (or x55 x29)) (or x64 x84)) (or x43 x25)) (or x69 x8))) (and (or x81 x83) (and (and (or x73 x73) (and (or x47 x82) (or x64 x84))) (or x66 x155)))) (and (or x44 x78) (and (and (or x66 x155) (and (or x43 x25) (or x34 x28))) (or x146 x146)))) (and (or x27 x27) (and (and (or x81 x83) (and (or x69 x8) (or x121 x13))) (or x44 x78))))) (and (and (and (or x71 x145) (and (or x144 x40) (and (or x98 x76) (or x75 x79)))) (or x59 x59)) (and (and (and (or x144 x40) (and (and (and (or x51 x109) (or x137 x42)) (or x100 x100)) (or x153 x101))) (and (and (or x76 x98) (and (and (or x42 x137) (and (or x19 x39) (or x117 x117))) (or x10 x48))) (and (or x79 x75) (and (or x106 x61) (and (and (or x11 x11) (or x19 x39)) (or x51 x109)))))) (and (or x71 x145) (and (and (and (or x10 x48) (or x106 x61)) (or x101 x153)) (or x134 x134)))))) (and (and (and (or x22 x23) (and (or x125 x125) (and (or x3 x74) (and (or x118 x136) (or x143 x156))))) (and (and (and (and (or x136 x118) (and (and (or x131 x70) (or x97 x97)) (or x50 x15))) (or x107 x124)) (and (and (or x156 x143) (and (and (or x70 x131) (or x116 x116)) (or x114 x45))) (or x93 x9))) (and (or x95 x128) (and (or x74 x3) (and (or x35 x35) (and (or x45 x114) (or x15 x50))))))) (and (and (and (or x128 x95) (and (or x107 x124) (or x9 x93))) (or x23 x22)) (or x52 x52))))))))
(assert (let ((x159 (x119 x90 x90)) (x142 (x119 x123 x123)) (x115 (x119 x113 x113)) (x112 (x119 x36 x36)) (x87 (x119 x60 x60))) (or (and (not (= x123 x142)) (and (not (= x159 x123)) (and (and (not (= x87 x123)) (not (= x123 x112))) (not (= x123 x115))))) (or (or (and (not (= x113 x142)) (and (and (and (not (= x113 x87)) (not (= x112 x113))) (not (= x113 x115))) (not (= x113 x159)))) (or (and (not (= x142 x36)) (and (and (not (= x115 x36)) (and (not (= x112 x36)) (not (= x36 x87)))) (not (= x159 x36)))) (and (and (and (not (= x60 x115)) (and (not (= x60 x87)) (not (= x112 x60)))) (not (= x159 x60))) (not (= x60 x142))))) (and (not (= x90 x142)) (and (not (= x159 x90)) (and (not (= x90 x115)) (and (not (= x87 x90)) (not (= x90 x112))))))))))
(assert (let ((x148 (x119 x113 x36)) (x20 (x119 x90 x113)) (x104 (x119 x36 x113)) (x126 (x119 x90 x36)) (x16 (x119 x90 x123)) (x142 (x119 x60 x123)) (x133 (x119 x36 x123)) (x103 (x119 x113 x113)) (x141 (x119 x123 x60)) (x68 (x119 x113 x60)) (x159 (x119 x60 x90)) (x32 (x119 x113 x90)) (x30 (x119 x90 x90)) (x108 (x119 x123 x36)) (x62 (x119 x90 x60)) (x85 (x119 x123 x90)) (x135 (x119 x113 x123)) (x87 (x119 x60 x60)) (x77 (x119 x36 x60)) (x12 (x119 x36 x90)) (x120 (x119 x123 x113)) (x115 (x119 x60 x113)) (x139 (x119 x36 x36)) (x112 (x119 x60 x36)) (x21 (x119 x123 x123))) (and (and (and (and (and (and (and (and (or (or (or (= x87 x113) (or (= x87 x36) (= x87 x60))) (= x90 x87)) (= x87 x123)) (or (= x112 x123) (or (= x90 x112) (or (= x112 x113) (or (= x112 x60) (= x36 x112)))))) (or (or (or (= x115 x113) (or (= x115 x36) (= x60 x115))) (= x90 x115)) (= x123 x115))) (or (or (or (= x113 x159) (or (= x159 x60) (= x159 x36))) (= x159 x90)) (= x159 x123))) (or (= x142 x123) (or (or (= x113 x142) (or (= x36 x142) (= x60 x142))) (= x142 x90)))) (and (or (= x133 x123) (or (= x90 x133) (or (or (= x133 x36) (= x133 x60)) (= x113 x133)))) (and (and (or (or (= x90 x104) (or (= x113 x104) (or (= x104 x36) (= x60 x104)))) (= x123 x104)) (and (or (= x123 x139) (or (= x90 x139) (or (= x113 x139) (or (= x139 x60) (= x139 x36))))) (or (= x77 x123) (or (= x77 x90) (or (= x77 x113) (or (= x77 x60) (= x36 x77))))))) (or (or (= x90 x12) (or (= x113 x12) (or (= x36 x12) (= x60 x12)))) (= x12 x123))))) (and (or (or (or (= x113 x135) (or (= x60 x135) (= x135 x36))) (= x135 x90)) (= x123 x135)) (and (or (= x32 x123) (or (= x90 x32) (or (= x32 x113) (or (= x36 x32) (= x60 x32))))) (and (or (or (= x90 x103) (or (or (= x103 x36) (= x60 x103)) (= x103 x113))) (= x103 x123)) (and (or (or (or (or (= x148 x36) (= x148 x60)) (= x113 x148)) (= x148 x90)) (= x123 x148)) (or (= x123 x68) (or (or (= x68 x113) (or (= x36 x68) (= x68 x60))) (= x90 x68)))))))) (and (and (and (and (or (or (= x90 x126) (or (= x113 x126) (or (= x126 x60) (= x36 x126)))) (= x126 x123)) (or (or (= x90 x62) (or (= x62 x113) (or (= x62 x60) (= x62 x36)))) (= x123 x62))) (or (= x20 x123) (or (= x20 x90) (or (or (= x20 x36) (= x60 x20)) (= x113 x20))))) (or (= x30 x123) (or (or (or (= x30 x36) (= x30 x60)) (= x113 x30)) (= x30 x90)))) (or (= x16 x123) (or (or (= x113 x16) (or (= x16 x60) (= x36 x16))) (= x90 x16))))) (and (and (and (or (or (or (= x113 x120) (or (= x36 x120) (= x60 x120))) (= x90 x120)) (= x123 x120)) (and (or (or (= x90 x141) (or (= x141 x113) (or (= x141 x60) (= x141 x36)))) (= x123 x141)) (or (or (= x90 x108) (or (or (= x108 x60) (= x36 x108)) (= x113 x108))) (= x123 x108)))) (or (= x85 x123) (or (= x90 x85) (or (= x85 x113) (or (= x36 x85) (= x60 x85)))))) (or (= x21 x123) (or (or (or (= x36 x21) (= x21 x60)) (= x21 x113)) (= x90 x21)))))))
(check-sat)
(exit)
